40 1 3
831 208 36 519 585 802 879 978 166 835 750 724 485 667 102 810 597 161 754 189 390 665 76 884 815 169 829 175 450 441 876 281 649 912 799 233 714 677 211 879 
512 960 602 996 627 704 806 224 864 559 412 254 224 488 137 38 656 965 213 105 406 89 385 54 1000 184 286 713 860 497 592 371 457 193 367 84 897 172 307 760 
731 719 13 954 206 150 992 861 115 205 966 520 293 351 573 293 534 859 6 393 355 597 764 811 790 131 894 686 302 201 446 33 920 458 986 125 608 978 986 722 
1830 9520 2410 4750 3020 8130 7680 8350 6710 7730 2280 260 3700 9920 8370 1590 1220 7310 8450 4240 9310 2900 4560 8510 7480 4420 9760 3550 4200 9620 770 6020 9130 3170 760 2140 1300 8440 490 8010 
106000
